c nIsolatedPIs 0
c maxPI 16
p cnf 89 220
c gate 17 6 -14 0
6 -17 0
-14 -17 0
-6 14 17 0
c gate 18 5 -13 0
5 -18 0
-13 -18 0
-5 13 18 0
c gate 19 -5 13 0
-5 -19 0
13 -19 0
5 -13 19 0
c gate 20 -18 -19 0
-18 -20 0
-19 -20 0
18 19 20 0
c gate 21 -17 20 0
-17 -21 0
20 -21 0
17 -20 21 0
c gate 22 -6 14 0
-6 -22 0
14 -22 0
6 -14 22 0
c gate 23 -19 -22 0
-19 -23 0
-22 -23 0
19 22 23 0
c gate 24 -17 -23 0
-17 -24 0
-23 -24 0
17 23 24 0
c gate 25 -21 -24 0
-21 -25 0
-24 -25 0
21 24 25 0
c gate 26 -8 16 0
-8 -26 0
16 -26 0
8 -16 26 0
c gate 27 8 -16 0
8 -27 0
-16 -27 0
-8 16 27 0
c gate 28 -7 15 0
-7 -28 0
15 -28 0
7 -15 28 0
c gate 29 7 -15 0
7 -29 0
-15 -29 0
-7 15 29 0
c gate 30 -25 -29 0
-25 -30 0
-29 -30 0
25 29 30 0
c gate 31 -28 -30 0
-28 -31 0
-30 -31 0
28 30 31 0
c gate 32 -27 -31 0
-27 -32 0
-31 -32 0
27 31 32 0
c gate 33 -26 -32 0
-26 -33 0
-32 -33 0
26 32 33 0
c gate 34 -25 33 0
-25 -34 0
33 -34 0
25 -33 34 0
c gate 35 4 -12 0
4 -35 0
-12 -35 0
-4 12 35 0
c gate 36 3 -11 0
3 -36 0
-11 -36 0
-3 11 36 0
c gate 37 -35 -36 0
-35 -37 0
-36 -37 0
35 36 37 0
c gate 38 -4 12 0
-4 -38 0
12 -38 0
4 -12 38 0
c gate 39 -37 -38 0
-37 -39 0
-38 -39 0
37 38 39 0
c gate 40 -3 11 0
-3 -40 0
11 -40 0
3 -11 40 0
c gate 41 -2 10 0
-2 -41 0
10 -41 0
2 -10 41 0
c gate 42 -38 -41 0
-38 -42 0
-41 -42 0
38 41 42 0
c gate 43 -40 42 0
-40 -43 0
42 -43 0
40 -42 43 0
c gate 44 2 -10 0
2 -44 0
-10 -44 0
-2 10 44 0
c gate 45 -1 9 0
-1 -45 0
9 -45 0
1 -9 45 0
c gate 46 -44 45 0
-44 -46 0
45 -46 0
44 -45 46 0
c gate 47 37 -46 0
37 -47 0
-46 -47 0
-37 46 47 0
c gate 48 43 47 0
43 -48 0
47 -48 0
-43 -47 48 0
c gate 49 -39 -48 0
-39 -49 0
-48 -49 0
39 48 49 0
c gate 50 1 -9 0
1 -50 0
-9 -50 0
-1 9 50 0
c gate 51 -44 -50 0
-44 -51 0
-50 -51 0
44 50 51 0
c gate 52 48 51 0
48 -52 0
51 -52 0
-48 -51 52 0
c gate 53 -49 -52 0
-49 -53 0
-52 -53 0
49 52 53 0
c gate 54 -24 -33 0
-24 -54 0
-33 -54 0
24 33 54 0
c gate 55 53 54 0
53 -55 0
54 -55 0
-53 -54 55 0
c gate 56 -34 -55 0
-34 -56 0
-55 -56 0
34 55 56 0
c gate 57 21 -22 0
21 -57 0
-22 -57 0
-21 22 57 0
c gate 58 -53 57 0
-53 -58 0
57 -58 0
53 -57 58 0
c gate 59 -24 -58 0
-24 -59 0
-58 -59 0
24 58 59 0
c gate 60 52 54 0
52 -60 0
54 -60 0
-52 -54 60 0
c gate 61 -49 57 0
-49 -61 0
57 -61 0
49 -57 61 0
c gate 62 -25 -61 0
-25 -62 0
-61 -62 0
25 61 62 0
c gate 63 -29 62 0
-29 -63 0
62 -63 0
29 -62 63 0
c gate 64 -26 -28 0
-26 -64 0
-28 -64 0
26 28 64 0
c gate 65 -63 64 0
-63 -65 0
64 -65 0
63 -64 65 0
c gate 66 -60 65 0
-60 -66 0
65 -66 0
60 -65 66 0
c gate 67 -27 -66 0
-27 -67 0
-66 -67 0
27 66 67 0
c gate 68 -59 67 0
-59 -68 0
67 -68 0
59 -67 68 0
c gate 69 -62 -67 0
-62 -69 0
-67 -69 0
62 67 69 0
c gate 70 -68 -69 0
-68 -70 0
-69 -70 0
68 69 70 0
c gate 71 56 -70 0
56 -71 0
-70 -71 0
-56 70 71 0
c gate 72 -56 70 0
-56 -72 0
70 -72 0
56 -70 72 0
c gate 73 -71 -72 0
-71 -73 0
-72 -73 0
71 72 73 0
c gate 74 26 -29 0
26 -74 0
-29 -74 0
-26 29 74 0
c gate 75 27 31 0
27 -75 0
31 -75 0
-27 -31 75 0
c gate 76 -74 -75 0
-74 -76 0
-75 -76 0
74 75 76 0
c gate 77 -26 -27 0
-26 -77 0
-27 -77 0
26 27 77 0
c gate 78 -28 59 0
-28 -78 0
59 -78 0
28 -59 78 0
c gate 79 32 -78 0
32 -79 0
-78 -79 0
-32 78 79 0
c gate 80 -66 -79 0
-66 -80 0
-79 -80 0
66 79 80 0
c gate 81 -77 -80 0
-77 -81 0
-80 -81 0
77 80 81 0
c gate 82 -76 81 0
-76 -82 0
81 -82 0
76 -81 82 0
c gate 83 76 -81 0
76 -83 0
-81 -83 0
-76 81 83 0
c gate 84 -82 -83 0
-82 -84 0
-83 -84 0
82 83 84 0
c gate 85 20 52 0
20 -85 0
52 -85 0
-20 -52 85 0
c gate 86 -33 -85 0
-33 -86 0
-85 -86 0
33 85 86 0
c gate 87 -67 86 0
-67 -87 0
86 -87 0
67 -86 87 0
c gate 88 -84 -87 0
-84 -88 0
-87 -88 0
84 87 88 0
c gate 89 -73 88 0
-73 -89 0
88 -89 0
73 -88 89 0
c PO
-89 0
